704629
20,3,141,169,149,170,185,89,108,87,227,128,145,11,186,102,103,229,211,44,212,92,167,171,203,131,79,51,220,58,57,138,10,142,196,45,18,226,124,213,163,153,64,200,9,197,199,173,75,56,28,113,85,69,125,190,151,121,176,68,22,225,50,97,41,159,112,72,208,217,205,135,194,118,192,83,94,78,166,187,180,123,84,122,24,181,60,130,172,147,148,114,1,81,157,179,120,76,221,40,127,105,140,218,189,98,201,104,174,53,55,17,91,52,99,215,65,23,42,30,177,198,158,207,2,137,184,188,15,59,136,14,29,7,119,109,13,164,96,193,12,133,110,47,224,46,16,222,175,219,43,63,4,116,19,182,209,6,35,62,162,126,146,117,48,66,206,38,73,156,82,134,139,70,31,71,0,161,228,132,154,111,26,168,39,80,129,101,61,54,86,34,93,107,49,150,27,77,214,74,204,33,36,191,178,195,88,106,160,115,183,100,165,8,67,95,90,21,25,143,144,155,210,5,202,37,223,32,152,216
